language ESSENCE' 1.0

letting jobs = 102
letting horizon = 793
letting resourcesRenew = 2
letting resourcesNonrenew = 2
letting resourceLimits = [38, 42, 402, 377]
letting successors = [[2, 3, 4, 5, 6, 8, 9, 10, 11, 12, 13, 14, 16, 17, 18, 19, 20, 21, 22, 23, 24, 25, 26, 27, 30, 32, 36, 39, 48], [101, 62, 55, 54, 42, 38, 35, 15, 7], [101, 72, 71, 59, 55, 54, 53, 52, 50, 44, 41, 37, 35, 33, 28], [100, 98, 97, 95, 92, 90, 72, 68, 67, 59, 58, 57, 55, 54, 52, 51, 44, 43, 31], [99, 96, 71, 69, 67, 58, 49, 47, 46, 43, 42, 41, 37, 29], [98, 96, 94, 81, 72, 70, 67, 66, 65, 60, 59, 55, 49, 46, 38, 34], [100, 95, 91, 90, 78, 72, 71, 70, 69, 68, 67, 63, 59, 56, 50, 49, 28], [96, 93, 92, 90, 89, 84, 70, 67, 66, 44, 41, 34], [95, 90, 83, 72, 68, 65, 59, 58, 56, 55, 54, 51, 45, 43], [99, 96, 95, 92, 70, 67, 66, 65, 59, 51, 43, 34], [96, 87, 85, 68, 66, 55, 45, 43, 41, 38], [96, 94, 93, 90, 70, 65, 60, 55, 49, 45, 34], [99, 98, 97, 96, 91, 90, 89, 86, 81, 77, 71, 67, 66, 65, 63, 54, 49, 40], [101, 99, 98, 96, 94, 93, 92, 91, 86, 81, 80, 79, 67, 65, 63, 60, 57, 55, 42], [98, 97, 95, 94, 92, 91, 80, 78, 70, 58, 57, 52, 51, 49], [100, 97, 95, 93, 90, 86, 84, 79, 71, 67, 65, 58, 53, 44], [96, 93, 92, 90, 84, 82, 79, 78, 77, 71, 70, 55, 52, 43], [101, 98, 97, 91, 90, 87, 85, 84, 83, 82, 81, 80, 79, 77, 71, 67, 65, 64, 62, 59], [98, 94, 89, 88, 85, 83, 82, 78, 76, 68, 67, 62, 54, 53, 45], [101, 97, 95, 93, 92, 91, 87, 84, 83, 82, 79, 77, 75, 67, 66, 65, 59, 58, 55], [99, 92, 90, 84, 83, 81, 78, 77, 71, 68, 67, 66, 63, 59, 58, 54], [95, 90, 88, 84, 77, 65, 59, 58, 52, 44], [99, 98, 95, 92, 91, 89, 83, 81, 80, 79, 77, 76, 75, 68, 67, 64, 46], [98, 97, 96, 94, 89, 88, 85, 83, 82, 81, 80, 79, 77, 68, 67, 47], [99, 97, 96, 95, 92, 91, 89, 85, 84, 82, 80, 79, 78, 77, 64, 63, 52], [98, 97, 94, 93, 92, 90, 88, 86, 83, 80, 79, 78, 76, 75, 68, 55, 53], [101, 98, 91, 86, 84, 83, 81, 79, 77, 76, 67, 63, 46], [98, 94, 93, 89, 88, 87, 86, 84, 83, 82, 80, 77, 75, 73, 66, 61, 58], [98, 90, 88, 84, 83, 82, 81, 80, 77, 68, 66, 65, 62, 59], [95, 91, 90, 88, 87, 85, 83, 80, 78, 73, 62, 50], [94, 83, 81, 80, 79, 74, 70, 65, 63, 60, 53], [95, 93, 92, 91, 89, 86, 83, 81, 78, 77, 76, 74, 63, 54], [99, 95, 92, 88, 87, 81, 79, 68, 67, 66, 62, 58], [100, 91, 88, 87, 86, 83, 82, 80, 78, 77, 69, 62, 58], [100, 90, 89, 88, 87, 86, 80, 79, 77, 75, 74, 73, 69, 65], [101, 86, 83, 81, 78, 77, 76, 75, 55, 54], [95, 91, 90, 88, 86, 81, 79, 77, 76, 75, 57], [99, 97, 92, 90, 86, 82, 77, 75, 57], [94, 91, 87, 84, 81, 76, 73, 65, 58], [95, 94, 93, 92, 87, 83, 82, 80, 79, 76, 73], [97, 95, 94, 83, 82, 79, 76, 65, 64], [97, 90, 88, 85, 84, 82, 77, 76, 75, 73], [94, 88, 80, 76, 74, 64, 62], [91, 82, 81, 80, 73, 69, 63], [92, 91, 81, 80, 74, 64, 63], [93, 90, 88, 87, 82, 78, 74, 73], [92, 90, 86, 78, 76, 74, 63], [93, 85, 84, 79, 76, 64], [88, 85, 79, 75, 74, 73], [96, 86, 84, 82, 77, 74], [93, 84, 82, 81, 77], [83, 81, 74, 66], [96, 87, 77, 64], [80, 79, 64], [89, 74, 73], [87, 81, 74], [84, 64], [85, 74], [89, 86], [84, 76], [79, 74], [63], [75], [73], [78], [76], [74], [73], [85], [87], [76], [73], [102], [102], [102], [102], [102], [102], [102], [102], [102], [102], [102], [102], [102], [102], [102], [102], [102], [102], [102], [102], [102], [102], [102], [102], [102], [102], [102], [102], [102], []]
letting durations = [[0], [3, 5, 7], [3, 5, 8], [1, 10, 10], [4, 5, 6], [1, 4, 9], [3, 9, 9], [2, 4, 7], [4, 5, 10], [1, 3, 4], [1, 2, 10], [1, 5, 9], [4, 4, 7], [4, 4, 6], [7, 9, 10], [2, 3, 8], [1, 1, 5], [1, 3, 5], [4, 7, 8], [1, 6, 7], [5, 10, 10], [1, 3, 10], [1, 2, 9], [4, 5, 10], [5, 8, 9], [6, 7, 8], [8, 8, 10], [6, 7, 10], [3, 6, 8], [1, 6, 10], [1, 8, 9], [2, 4, 10], [5, 6, 7], [6, 7, 8], [4, 6, 6], [2, 7, 10], [1, 4, 7], [7, 7, 8], [1, 4, 4], [1, 2, 5], [1, 3, 10], [1, 1, 2], [2, 6, 10], [4, 4, 8], [1, 5, 5], [2, 5, 10], [1, 5, 5], [1, 2, 7], [3, 5, 6], [7, 7, 9], [2, 9, 10], [6, 6, 10], [2, 3, 8], [2, 4, 4], [3, 4, 6], [5, 9, 10], [5, 9, 10], [1, 4, 5], [2, 3, 9], [1, 2, 8], [4, 4, 6], [1, 4, 8], [3, 5, 10], [4, 9, 9], [6, 7, 8], [4, 6, 9], [2, 7, 8], [2, 5, 8], [4, 5, 8], [1, 5, 8], [1, 4, 10], [1, 3, 10], [3, 5, 6], [2, 2, 9], [5, 8, 10], [3, 6, 8], [3, 7, 8], [2, 3, 8], [7, 8, 9], [5, 6, 7], [3, 4, 8], [2, 3, 4], [1, 7, 9], [1, 2, 9], [1, 4, 6], [2, 4, 8], [3, 8, 10], [1, 4, 4], [6, 7, 8], [2, 4, 10], [1, 1, 8], [2, 7, 9], [2, 6, 8], [4, 8, 9], [6, 7, 9], [1, 4, 7], [1, 4, 6], [2, 5, 7], [6, 7, 7], [2, 2, 8], [4, 6, 7], [0]]
letting resourceUsage = [[[0, 0, 0, 0]], [[2, 0, 0, 6], [0, 3, 7, 0], [0, 3, 4, 0]], [[0, 8, 7, 0], [0, 7, 6, 0], [0, 7, 0, 2]], [[0, 4, 6, 0], [0, 3, 5, 0], [0, 3, 0, 2]], [[8, 0, 0, 7], [8, 0, 0, 6], [8, 0, 0, 5]], [[0, 4, 9, 0], [8, 0, 0, 8], [8, 0, 5, 0]], [[6, 0, 8, 0], [3, 0, 0, 6], [2, 0, 4, 0]], [[4, 0, 6, 0], [4, 0, 5, 0], [4, 0, 0, 3]], [[0, 10, 0, 5], [0, 9, 0, 4], [0, 9, 2, 0]], [[0, 7, 0, 7], [6, 0, 4, 0], [0, 6, 4, 0]], [[0, 6, 7, 0], [0, 5, 6, 0], [0, 4, 0, 2]], [[3, 0, 8, 0], [0, 5, 6, 0], [2, 0, 0, 3]], [[7, 0, 4, 0], [0, 7, 0, 4], [5, 0, 0, 4]], [[10, 0, 8, 0], [6, 0, 0, 7], [4, 0, 7, 0]], [[8, 0, 6, 0], [7, 0, 0, 1], [7, 0, 2, 0]], [[7, 0, 10, 0], [0, 7, 4, 0], [0, 7, 0, 4]], [[0, 6, 0, 5], [7, 0, 0, 5], [6, 0, 0, 4]], [[7, 0, 0, 3], [6, 0, 0, 2], [4, 0, 1, 0]], [[0, 10, 0, 4], [4, 0, 0, 4], [3, 0, 0, 4]], [[0, 3, 0, 7], [0, 1, 4, 0], [0, 1, 3, 0]], [[4, 0, 0, 4], [2, 0, 0, 3], [2, 0, 2, 0]], [[0, 9, 0, 4], [0, 8, 0, 4], [2, 0, 3, 0]], [[0, 4, 10, 0], [0, 2, 4, 0], [0, 2, 0, 4]], [[4, 0, 5, 0], [0, 3, 3, 0], [0, 3, 0, 1]], [[0, 5, 7, 0], [5, 0, 0, 3], [5, 0, 0, 2]], [[0, 8, 2, 0], [8, 0, 2, 0], [0, 5, 0, 5]], [[0, 7, 0, 8], [0, 4, 5, 0], [0, 1, 3, 0]], [[0, 6, 8, 0], [7, 0, 0, 9], [4, 0, 0, 9]], [[7, 0, 0, 8], [0, 6, 5, 0], [1, 0, 3, 0]], [[0, 9, 4, 0], [2, 0, 3, 0], [0, 5, 0, 1]], [[0, 9, 0, 6], [0, 8, 0, 6], [2, 0, 0, 6]], [[2, 0, 9, 0], [2, 0, 0, 5], [2, 0, 8, 0]], [[4, 0, 0, 8], [3, 0, 0, 8], [0, 1, 0, 7]], [[0, 4, 3, 0], [4, 0, 0, 7], [3, 0, 1, 0]], [[0, 7, 9, 0], [0, 4, 8, 0], [0, 2, 0, 1]], [[0, 5, 0, 10], [7, 0, 6, 0], [7, 0, 0, 9]], [[0, 9, 10, 0], [0, 7, 10, 0], [3, 0, 0, 9]], [[2, 0, 0, 7], [0, 6, 7, 0], [0, 5, 0, 5]], [[5, 0, 2, 0], [0, 7, 2, 0], [2, 0, 2, 0]], [[4, 0, 0, 5], [4, 0, 0, 4], [4, 0, 4, 0]], [[0, 5, 0, 6], [0, 3, 6, 0], [6, 0, 6, 0]], [[0, 3, 0, 9], [8, 0, 0, 6], [6, 0, 3, 0]], [[0, 5, 9, 0], [0, 4, 4, 0], [7, 0, 3, 0]], [[0, 7, 0, 9], [0, 5, 4, 0], [0, 3, 2, 0]], [[0, 8, 6, 0], [8, 0, 0, 1], [0, 6, 0, 1]], [[0, 8, 9, 0], [8, 0, 0, 6], [0, 5, 6, 0]], [[0, 8, 6, 0], [3, 0, 0, 2], [2, 0, 4, 0]], [[10, 0, 0, 5], [8, 0, 0, 3], [0, 3, 0, 3]], [[4, 0, 9, 0], [0, 6, 0, 4], [4, 0, 8, 0]], [[7, 0, 0, 9], [3, 0, 1, 0], [0, 4, 0, 8]], [[0, 3, 4, 0], [9, 0, 2, 0], [0, 1, 1, 0]], [[0, 5, 0, 6], [0, 5, 4, 0], [2, 0, 0, 2]], [[7, 0, 10, 0], [5, 0, 0, 5], [0, 4, 10, 0]], [[8, 0, 8, 0], [7, 0, 4, 0], [0, 7, 1, 0]], [[0, 6, 10, 0], [0, 6, 9, 0], [4, 0, 0, 2]], [[4, 0, 0, 6], [4, 0, 4, 0], [4, 0, 0, 5]], [[5, 0, 9, 0], [5, 0, 6, 0], [0, 6, 0, 5]], [[8, 0, 9, 0], [0, 6, 0, 4], [0, 6, 0, 3]], [[10, 0, 0, 9], [0, 5, 3, 0], [0, 5, 2, 0]], [[0, 4, 0, 2], [0, 3, 0, 1], [3, 0, 0, 1]], [[8, 0, 8, 0], [0, 3, 6, 0], [0, 3, 0, 5]], [[4, 0, 3, 0], [4, 0, 0, 3], [0, 2, 3, 0]], [[0, 10, 0, 6], [6, 0, 2, 0], [0, 7, 2, 0]], [[0, 9, 9, 0], [8, 0, 9, 0], [0, 8, 0, 5]], [[0, 10, 0, 2], [0, 4, 0, 2], [0, 2, 0, 2]], [[8, 0, 8, 0], [0, 6, 0, 5], [0, 5, 6, 0]], [[3, 0, 8, 0], [3, 0, 0, 8], [3, 0, 0, 7]], [[0, 4, 7, 0], [4, 0, 0, 4], [0, 4, 0, 4]], [[7, 0, 0, 2], [6, 0, 8, 0], [5, 0, 7, 0]], [[6, 0, 8, 0], [0, 3, 7, 0], [0, 3, 0, 6]], [[7, 0, 0, 4], [0, 9, 9, 0], [5, 0, 0, 4]], [[10, 0, 8, 0], [10, 0, 7, 0], [0, 6, 0, 4]], [[0, 7, 0, 10], [0, 7, 5, 0], [5, 0, 0, 10]], [[6, 0, 7, 0], [0, 5, 0, 2], [0, 3, 5, 0]], [[0, 7, 8, 0], [0, 6, 7, 0], [0, 5, 5, 0]], [[0, 7, 3, 0], [4, 0, 0, 6], [0, 2, 0, 2]], [[7, 0, 7, 0], [6, 0, 6, 0], [0, 7, 0, 6]], [[6, 0, 0, 9], [0, 5, 3, 0], [5, 0, 2, 0]], [[0, 9, 9, 0], [7, 0, 0, 4], [0, 7, 8, 0]], [[4, 0, 6, 0], [4, 0, 0, 8], [0, 2, 4, 0]], [[0, 8, 0, 7], [0, 8, 7, 0], [2, 0, 0, 4]], [[0, 10, 0, 8], [9, 0, 0, 7], [8, 0, 0, 4]], [[0, 8, 0, 8], [9, 0, 4, 0], [0, 5, 3, 0]], [[1, 0, 0, 4], [1, 0, 6, 0], [1, 0, 5, 0]], [[0, 4, 10, 0], [5, 0, 0, 6], [0, 2, 4, 0]], [[0, 6, 0, 2], [7, 0, 0, 2], [0, 2, 7, 0]], [[0, 6, 6, 0], [0, 6, 5, 0], [0, 6, 4, 0]], [[0, 10, 4, 0], [0, 9, 4, 0], [0, 8, 0, 3]], [[0, 9, 0, 7], [0, 6, 0, 5], [0, 5, 1, 0]], [[0, 4, 0, 7], [5, 0, 0, 6], [5, 0, 0, 4]], [[0, 8, 4, 0], [2, 0, 0, 5], [2, 0, 4, 0]], [[0, 4, 8, 0], [0, 3, 7, 0], [7, 0, 0, 4]], [[0, 9, 7, 0], [0, 5, 6, 0], [0, 3, 4, 0]], [[7, 0, 0, 8], [4, 0, 2, 0], [2, 0, 0, 7]], [[5, 0, 1, 0], [0, 4, 1, 0], [0, 3, 0, 9]], [[7, 0, 0, 6], [0, 5, 4, 0], [0, 4, 0, 4]], [[8, 0, 5, 0], [0, 3, 4, 0], [2, 0, 0, 4]], [[0, 8, 0, 3], [0, 5, 0, 3], [6, 0, 0, 3]], [[5, 0, 7, 0], [4, 0, 5, 0], [4, 0, 0, 3]], [[0, 6, 8, 0], [8, 0, 0, 9], [0, 3, 7, 0]], [[0, 6, 2, 0], [5, 0, 0, 6], [5, 0, 1, 0]], [[0, 0, 0, 0]]]
